branch-and-cut/resultados/I080/i080-102.sol
2403
14
47 40
6 47
6 15
15 8
38 3
1 4
38 70
38 47
7 28
79 28
5 70
28 40
2 79
1 38
